10	5
0	4	1	2	3	4
1	1	9
2	1	5
3	1	8
4	2	7	8
5	1	9
6	1	9
7	2	5	6
8	0
9	2	10	11
10	1	11
11	0
0	0	0	0	0	0	0
1	10	4	5	5	0	0
2	4	0	0	0	4	3
3	7	0	0	3	5	4
4	7	2	2	3	2	2
5	9	0	1	0	0	1
6	2	0	0	0	2	0
7	7	5	4	0	0	0
8	9	4	0	0	4	0
9	8	0	5	0	5	0
10	1	0	2	4	0	3
11	0	0	0	0	0	0
7	7	7	7	6
